NAME          ClpDefau  FREE
ROWS
 N  OBJROW
 L  ZMUNI1_PCT
 L  ZMUNI2_PCT
 L  ZMUNI3_PCT
 L  ZMUNI4_PCT
 L  ZMUNI5_PCT
 L  ZMUNI6_PCT
 L  ZMUNI7_PCT
 L  ZMUNI8_PCT
 L  ZMUNI9_PCT
COLUMNS
    QMUNI1 OBJROW 1.          
    QMUNI1 ZMUNI1_PCT 28643.9896  
    QMUNI1 ZMUNI2_PCT 1943.9698   
    QMUNI1 ZMUNI3_PCT 4386.1389   
    QMUNI1 ZMUNI4_PCT 3233.67119  
    QMUNI1 ZMUNI5_PCT 284.4811    
    QMUNI1 ZMUNI6_PCT 466.4421    
    QMUNI1 ZMUNI7_PCT 1994.133    
    QMUNI1 ZMUNI8_PCT 1722.5265   
    QMUNI1 ZMUNI9_PCT 980.3772    
    QMUNI2 OBJROW 1.          
    QMUNI2 ZMUNI1_PCT 1643.0855   
    QMUNI2 ZMUNI2_PCT 33531.9519  
    QMUNI2 ZMUNI3_PCT 2444.2673   
    QMUNI2 ZMUNI4_PCT 2607.82242  
    QMUNI2 ZMUNI5_PCT 29.85       
    QMUNI2 ZMUNI6_PCT 87.6426     
    QMUNI2 ZMUNI7_PCT 835.0372    
    QMUNI2 ZMUNI8_PCT 1064.1098   
    QMUNI2 ZMUNI9_PCT 945.282     
    QMUNI3 OBJROW 1.          
    QMUNI3 ZMUNI1_PCT 4011.8217   
    QMUNI3 ZMUNI2_PCT 2541.5421   
    QMUNI3 ZMUNI3_PCT 29738.4262  
    QMUNI3 ZMUNI4_PCT 4943.1324   
    QMUNI3 ZMUNI5_PCT  -12.7792   
    QMUNI3 ZMUNI6_PCT 124.9313    
    QMUNI3 ZMUNI7_PCT 1392.9367   
    QMUNI3 ZMUNI8_PCT 1340.4846   
    QMUNI3 ZMUNI9_PCT 694.4657    
    QMUNI4 OBJROW 1.          
    QMUNI4 ZMUNI1_PCT 3327.6558   
    QMUNI4 ZMUNI2_PCT 3051.5671   
    QMUNI4 ZMUNI3_PCT 5496.5973   
    QMUNI4 ZMUNI4_PCT 105051.70822
    QMUNI4 ZMUNI5_PCT 302.2194    
    QMUNI4 ZMUNI6_PCT 397.3007    
    QMUNI4 ZMUNI7_PCT 1415.4434   
    QMUNI4 ZMUNI8_PCT 1377.8686   
    QMUNI4 ZMUNI9_PCT 854.3015    
    QMUNI5 OBJROW 1.          
    QMUNI5 ZMUNI1_PCT 174.9992    
    QMUNI5 ZMUNI2_PCT 94.4138     
    QMUNI5 ZMUNI3_PCT 122.6425    
    QMUNI5 ZMUNI4_PCT 82.68356    
    QMUNI5 ZMUNI5_PCT 33677.1011  
    QMUNI5 ZMUNI6_PCT 2727.9854   
    QMUNI5 ZMUNI7_PCT 366.9738    
    QMUNI5 ZMUNI8_PCT 238.8       
    QMUNI5 ZMUNI9_PCT 129.509     
    QMUNI6 OBJROW 1.          
    QMUNI6 ZMUNI1_PCT 306.7016    
    QMUNI6 ZMUNI2_PCT 148.3918    
    QMUNI6 ZMUNI3_PCT 221.6339    
    QMUNI6 ZMUNI4_PCT 144.19556   
    QMUNI6 ZMUNI5_PCT 2976.5129   
    QMUNI6 ZMUNI6_PCT 31828.1173  
    QMUNI6 ZMUNI7_PCT 630.3787    
    QMUNI6 ZMUNI8_PCT 393.486     
    QMUNI6 ZMUNI9_PCT 229.0726    
    QMUNI7 OBJROW 1.          
    QMUNI7 ZMUNI1_PCT 1810.8368   
    QMUNI7 ZMUNI2_PCT 1212.883    
    QMUNI7 ZMUNI3_PCT 1620.6741   
    QMUNI7 ZMUNI4_PCT 1274.15657  
    QMUNI7 ZMUNI5_PCT 911.6173    
    QMUNI7 ZMUNI6_PCT 1091.0988   
    QMUNI7 ZMUNI7_PCT 29729.8431  
    QMUNI7 ZMUNI8_PCT 3339.7674   
    QMUNI7 ZMUNI9_PCT 1910.7819   
    QMUNI8 OBJROW 1.          
    QMUNI8 ZMUNI1_PCT 1212.5969   
    QMUNI8 ZMUNI2_PCT 1060.8673   
    QMUNI8 ZMUNI3_PCT 1230.8121   
    QMUNI8 ZMUNI4_PCT 962.82959   
    QMUNI8 ZMUNI5_PCT 345.993     
    QMUNI8 ZMUNI6_PCT 430.4886    
    QMUNI8 ZMUNI7_PCT 2503.9673   
    QMUNI8 ZMUNI8_PCT 27483.5586  
    QMUNI8 ZMUNI9_PCT 1447.4869   
    QMUNI9 OBJROW 1.          
    QMUNI9 ZMUNI1_PCT 394.7258    
    QMUNI9 ZMUNI2_PCT 722.5037    
    QMUNI9 ZMUNI3_PCT 482.3684    
    QMUNI9 ZMUNI4_PCT 407.0282    
    QMUNI9 ZMUNI5_PCT 101.0895    
    QMUNI9 ZMUNI6_PCT 134.7542    
    QMUNI9 ZMUNI7_PCT 666.2368    
    QMUNI9 ZMUNI8_PCT 1154.5181   
    QMUNI9 ZMUNI9_PCT 25638.5803  
RHS
    RHS ZMUNI1_PCT  -0.17520954
    RHS ZMUNI2_PCT  -0.1714984 
    RHS ZMUNI3_PCT  -0.22423716
    RHS ZMUNI4_PCT  -0.7673772 
    RHS ZMUNI5_PCT -0.000972206
    RHS ZMUNI6_PCT  -0.18542329
    RHS ZMUNI7_PCT 1.0712587261
    RHS ZMUNI8_PCT 0.5987718451
    RHS ZMUNI9_PCT -0.097886674
BOUNDS
 LO BOUND QMUNI1 -0.000948725
 UP BOUND QMUNI1      1.1e+10
 LO BOUND QMUNI2 -0.000678375
 UP BOUND QMUNI2      1.1e+10
 LO BOUND QMUNI3 -0.000745782
 UP BOUND QMUNI3      1.1e+10
 LO BOUND QMUNI4 -0.000267546
 UP BOUND QMUNI4      1.1e+10
 LO BOUND QMUNI5 -0.000551082
 UP BOUND QMUNI5      1.1e+10
 LO BOUND QMUNI6 -0.000724588
 UP BOUND QMUNI6      1.1e+10
 LO BOUND QMUNI7 -0.000391418
 UP BOUND QMUNI7      1.1e+10
 LO BOUND QMUNI8 -0.000502568
 UP BOUND QMUNI8      1.1e+10
 LO BOUND QMUNI9 -0.000561312
 UP BOUND QMUNI9      1.1e+10
ENDATA
